p cnf 430 1488
-191 13 0
-191 -26 0
-191 -56 0
-191 5 0
-191 -158 0
191 -13 26 56 -5 158 0
-192 -111 0
-192 -42 0
-192 145 0
-192 -138 0
-192 -83 0
192 111 42 -145 138 83 0
-193 -83 0
-193 156 0
-193 -142 0
-193 2 0
-193 -100 0
193 83 -156 142 -2 100 0
-194 90 0
-194 -187 0
-194 123 0
-194 145 0
-194 190 0
194 -90 187 -123 -145 -190 0
-195 140 0
-195 -3 0
-195 -163 0
-195 -91 0
-195 -99 0
195 -140 3 163 91 99 0
191 192 193 194 195 0
-196 -117 0
-196 -135 0
-196 -111 0
-196 130 0
-196 147 0
196 117 135 111 -130 -147 0
-197 55 0
-197 -143 0
-197 179 0
-197 34 0
-197 141 0
197 -55 143 -179 -34 -141 0
-198 -148 0
-198 116 0
-198 169 0
-198 -86 0
-198 166 0
198 148 -116 -169 86 -166 0
-199 94 0
-199 -113 0
-199 52 0
-199 76 0
-199 172 0
199 -94 113 -52 -76 -172 0
-200 161 0
-200 73 0
-200 7 0
-200 165 0
-200 -25 0
200 -161 -73 -7 -165 25 0
196 197 198 199 200 0
-201 -76 0
-201 150 0
-201 -53 0
-201 123 0
-201 181 0
201 76 -150 53 -123 -181 0
-202 134 0
-202 152 0
-202 -173 0
-202 -91 0
-202 93 0
202 -134 -152 173 91 -93 0
-203 24 0
-203 -155 0
-203 160 0
-203 181 0
-203 -157 0
203 -24 155 -160 -181 157 0
-204 108 0
-204 -27 0
-204 124 0
-204 -94 0
-204 -137 0
204 -108 27 -124 94 137 0
-205 -26 0
-205 94 0
-205 58 0
-205 143 0
-205 68 0
205 26 -94 -58 -143 -68 0
201 202 203 204 205 0
-206 88 0
-206 -49 0
-206 81 0
-206 171 0
-206 -170 0
206 -88 49 -81 -171 170 0
-207 -169 0
-207 186 0
-207 -134 0
-207 15 0
-207 53 0
207 169 -186 134 -15 -53 0
-208 -28 0
-208 88 0
-208 12 0
-208 -81 0
-208 -63 0
208 28 -88 -12 81 63 0
-209 -103 0
-209 73 0
-209 8 0
-209 -163 0
-209 30 0
209 103 -73 -8 163 -30 0
-210 82 0
-210 -43 0
-210 131 0
-210 -65 0
-210 48 0
210 -82 43 -131 65 -48 0
206 207 208 209 210 0
-211 -27 0
-211 -10 0
-211 -87 0
-211 -173 0
-211 115 0
211 27 10 87 173 -115 0
-212 -146 0
-212 -167 0
-212 -139 0
-212 -36 0
-212 15 0
212 146 167 139 36 -15 0
-213 167 0
-213 -26 0
-213 -83 0
-213 -59 0
-213 163 0
213 -167 26 83 59 -163 0
-214 42 0
-214 -51 0
-214 125 0
-214 -79 0
-214 134 0
214 -42 51 -125 79 -134 0
-215 -158 0
-215 -90 0
-215 84 0
-215 -170 0
-215 33 0
215 158 90 -84 170 -33 0
211 212 213 214 215 0
-216 -39 0
-216 83 0
-216 66 0
-216 -9 0
-216 -55 0
216 39 -83 -66 9 55 0
-217 45 0
-217 162 0
-217 -55 0
-217 -64 0
-217 108 0
217 -45 -162 55 64 -108 0
-218 181 0
-218 -167 0
-218 135 0
-218 23 0
-218 122 0
218 -181 167 -135 -23 -122 0
-219 161 0
-219 -75 0
-219 151 0
-219 -113 0
-219 82 0
219 -161 75 -151 113 -82 0
-220 -79 0
-220 -130 0
-220 95 0
-220 168 0
-220 10 0
220 79 130 -95 -168 -10 0
216 217 218 219 220 0
-221 102 0
-221 130 0
-221 -21 0
-221 10 0
-221 184 0
221 -102 -130 21 -10 -184 0
-222 -31 0
-222 -84 0
-222 -14 0
-222 70 0
-222 -158 0
222 31 84 14 -70 158 0
-223 21 0
-223 171 0
-223 91 0
-223 -142 0
-223 -54 0
223 -21 -171 -91 142 54 0
-224 -44 0
-224 -134 0
-224 136 0
-224 75 0
-224 125 0
224 44 134 -136 -75 -125 0
-225 -58 0
-225 127 0
-225 -113 0
-225 42 0
-225 55 0
225 58 -127 113 -42 -55 0
221 222 223 224 225 0
-226 -22 0
-226 -74 0
-226 48 0
-226 102 0
-226 -151 0
226 22 74 -48 -102 151 0
-227 15 0
-227 6 0
-227 -183 0
-227 107 0
-227 -125 0
227 -15 -6 183 -107 125 0
-228 -16 0
-228 154 0
-228 -61 0
-228 -30 0
-228 95 0
228 16 -154 61 30 -95 0
-229 -143 0
-229 -26 0
-229 63 0
-229 16 0
-229 -5 0
229 143 26 -63 -16 5 0
-230 119 0
-230 135 0
-230 62 0
-230 -8 0
-230 -146 0
230 -119 -135 -62 8 146 0
226 227 228 229 230 0
-231 183 0
-231 -76 0
-231 -42 0
-231 47 0
-231 11 0
231 -183 76 42 -47 -11 0
-232 -76 0
-232 93 0
-232 141 0
-232 136 0
-232 173 0
232 76 -93 -141 -136 -173 0
-233 11 0
-233 -165 0
-233 -96 0
-233 57 0
-233 38 0
233 -11 165 96 -57 -38 0
-234 -118 0
-234 -135 0
-234 21 0
-234 1 0
-234 154 0
234 118 135 -21 -1 -154 0
-235 149 0
-235 -9 0
-235 -71 0
-235 -79 0
-235 95 0
235 -149 9 71 79 -95 0
231 232 233 234 235 0
-236 -16 0
-236 55 0
-236 -40 0
-236 179 0
-236 -39 0
236 16 -55 40 -179 39 0
-237 -164 0
-237 -82 0
-237 25 0
-237 -108 0
-237 -58 0
237 164 82 -25 108 58 0
-238 -103 0
-238 133 0
-238 -141 0
-238 80 0
-238 62 0
238 103 -133 141 -80 -62 0
-239 -164 0
-239 -48 0
-239 -175 0
-239 -125 0
-239 139 0
239 164 48 175 125 -139 0
-240 -60 0
-240 84 0
-240 44 0
-240 144 0
-240 57 0
240 60 -84 -44 -144 -57 0
236 237 238 239 240 0
-241 28 0
-241 -102 0
-241 166 0
-241 -170 0
-241 182 0
241 -28 102 -166 170 -182 0
-242 84 0
-242 -127 0
-242 4 0
-242 143 0
-242 -58 0
242 -84 127 -4 -143 58 0
-243 -61 0
-243 -129 0
-243 -39 0
-243 -161 0
-243 -167 0
243 61 129 39 161 167 0
-244 -75 0
-244 -162 0
-244 -36 0
-244 -163 0
-244 147 0
244 75 162 36 163 -147 0
-245 151 0
-245 12 0
-245 37 0
-245 148 0
-245 153 0
245 -151 -12 -37 -148 -153 0
241 242 243 244 245 0
-246 41 0
-246 18 0
-246 162 0
-246 -74 0
-246 85 0
246 -41 -18 -162 74 -85 0
-247 -81 0
-247 190 0
-247 -39 0
-247 -88 0
-247 -152 0
247 81 -190 39 88 152 0
-248 -160 0
-248 -80 0
-248 -114 0
-248 -105 0
-248 -168 0
248 160 80 114 105 168 0
-249 -23 0
-249 -116 0
-249 141 0
-249 50 0
-249 -181 0
249 23 116 -141 -50 181 0
-250 22 0
-250 79 0
-250 -142 0
-250 101 0
-250 131 0
250 -22 -79 142 -101 -131 0
246 247 248 249 250 0
-251 59 0
-251 183 0
-251 172 0
-251 148 0
-251 -35 0
251 -59 -183 -172 -148 35 0
-252 138 0
-252 -185 0
-252 168 0
-252 -115 0
-252 -65 0
252 -138 185 -168 115 65 0
-253 -143 0
-253 -49 0
-253 -50 0
-253 -149 0
-253 -119 0
253 143 49 50 149 119 0
-254 37 0
-254 -83 0
-254 -185 0
-254 177 0
-254 -165 0
254 -37 83 185 -177 165 0
-255 -105 0
-255 -77 0
-255 10 0
-255 162 0
-255 63 0
255 105 77 -10 -162 -63 0
251 252 253 254 255 0
-256 33 0
-256 141 0
-256 -104 0
-256 -164 0
-256 6 0
256 -33 -141 104 164 -6 0
-257 16 0
-257 -35 0
-257 -66 0
-257 -145 0
-257 74 0
257 -16 35 66 145 -74 0
-258 42 0
-258 -69 0
-258 43 0
-258 -109 0
-258 -25 0
258 -42 69 -43 109 25 0
-259 143 0
-259 -106 0
-259 -38 0
-259 -60 0
-259 -163 0
259 -143 106 38 60 163 0
-260 26 0
-260 130 0
-260 158 0
-260 52 0
-260 163 0
260 -26 -130 -158 -52 -163 0
256 257 258 259 260 0
-261 -49 0
-261 -161 0
-261 -79 0
-261 108 0
-261 -177 0
261 49 161 79 -108 177 0
-262 125 0
-262 -177 0
-262 23 0
-262 -172 0
-262 120 0
262 -125 177 -23 172 -120 0
-263 120 0
-263 123 0
-263 27 0
-263 -69 0
-263 101 0
263 -120 -123 -27 69 -101 0
-264 152 0
-264 86 0
-264 -183 0
-264 185 0
-264 69 0
264 -152 -86 183 -185 -69 0
-265 85 0
-265 109 0
-265 25 0
-265 36 0
-265 182 0
265 -85 -109 -25 -36 -182 0
261 262 263 264 265 0
-266 46 0
-266 -51 0
-266 97 0
-266 -86 0
-266 16 0
266 -46 51 -97 86 -16 0
-267 -3 0
-267 138 0
-267 48 0
-267 -172 0
-267 -134 0
267 3 -138 -48 172 134 0
-268 124 0
-268 -160 0
-268 179 0
-268 -16 0
-268 -168 0
268 -124 160 -179 16 168 0
-269 -186 0
-269 -90 0
-269 105 0
-269 142 0
-269 62 0
269 186 90 -105 -142 -62 0
-270 -28 0
-270 -142 0
-270 -146 0
-270 69 0
-270 50 0
270 28 142 146 -69 -50 0
266 267 268 269 270 0
-271 -114 0
-271 127 0
-271 -58 0
-271 170 0
-271 81 0
271 114 -127 58 -170 -81 0
-272 -133 0
-272 -88 0
-272 -121 0
-272 -64 0
-272 -96 0
272 133 88 121 64 96 0
-273 37 0
-273 -80 0
-273 182 0
-273 90 0
-273 -169 0
273 -37 80 -182 -90 169 0
-274 110 0
-274 -47 0
-274 43 0
-274 -55 0
-274 -114 0
274 -110 47 -43 55 114 0
-275 -79 0
-275 86 0
-275 -1 0
-275 -63 0
-275 137 0
275 79 -86 1 63 -137 0
271 272 273 274 275 0
-276 -18 0
-276 135 0
-276 -56 0
-276 169 0
-276 -66 0
276 18 -135 56 -169 66 0
-277 -168 0
-277 60 0
-277 -40 0
-277 -2 0
-277 10 0
277 168 -60 40 2 -10 0
-278 58 0
-278 -7 0
-278 -90 0
-278 -63 0
-278 -36 0
278 -58 7 90 63 36 0
-279 47 0
-279 89 0
-279 179 0
-279 -72 0
-279 -14 0
279 -47 -89 -179 72 14 0
-280 178 0
-280 -61 0
-280 94 0
-280 -145 0
-280 128 0
280 -178 61 -94 145 -128 0
276 277 278 279 280 0
-281 -163 0
-281 189 0
-281 36 0
-281 131 0
-281 166 0
281 163 -189 -36 -131 -166 0
-282 -42 0
-282 -19 0
-282 181 0
-282 -54 0
-282 -166 0
282 42 19 -181 54 166 0
-283 -96 0
-283 165 0
-283 48 0
-283 -179 0
-283 -89 0
283 96 -165 -48 179 89 0
-284 -22 0
-284 169 0
-284 137 0
-284 46 0
-284 -33 0
284 22 -169 -137 -46 33 0
-285 138 0
-285 -189 0
-285 97 0
-285 65 0
-285 184 0
285 -138 189 -97 -65 -184 0
281 282 283 284 285 0
-286 109 0
-286 34 0
-286 124 0
-286 177 0
-286 -47 0
286 -109 -34 -124 -177 47 0
-287 143 0
-287 41 0
-287 21 0
-287 -128 0
-287 -188 0
287 -143 -41 -21 128 188 0
-288 19 0
-288 -54 0
-288 -80 0
-288 190 0
-288 4 0
288 -19 54 80 -190 -4 0
-289 -103 0
-289 -110 0
-289 -145 0
-289 -168 0
-289 182 0
289 103 110 145 168 -182 0
-290 -2 0
-290 -84 0
-290 79 0
-290 -161 0
-290 81 0
290 2 84 -79 161 -81 0
286 287 288 289 290 0
-291 182 0
-291 25 0
-291 -170 0
-291 160 0
-291 -19 0
291 -182 -25 170 -160 19 0
-292 -89 0
-292 -74 0
-292 -27 0
-292 -96 0
-292 -35 0
292 89 74 27 96 35 0
-293 -104 0
-293 35 0
-293 173 0
-293 -91 0
-293 142 0
293 104 -35 -173 91 -142 0
-294 -76 0
-294 -72 0
-294 55 0
-294 -180 0
-294 25 0
294 76 72 -55 180 -25 0
-295 89 0
-295 -29 0
-295 -35 0
-295 124 0
-295 -136 0
295 -89 29 35 -124 136 0
291 292 293 294 295 0
-296 -89 0
-296 -51 0
-296 70 0
-296 48 0
-296 -10 0
296 89 51 -70 -48 10 0
-297 -186 0
-297 37 0
-297 -8 0
-297 140 0
-297 -12 0
297 186 -37 8 -140 12 0
-298 7 0
-298 -93 0
-298 -148 0
-298 126 0
-298 133 0
298 -7 93 148 -126 -133 0
-299 -79 0
-299 20 0
-299 -105 0
-299 41 0
-299 -128 0
299 79 -20 105 -41 128 0
-300 -85 0
-300 54 0
-300 158 0
-300 50 0
-300 101 0
300 85 -54 -158 -50 -101 0
296 297 298 299 300 0
-301 98 0
-301 141 0
-301 -8 0
-301 86 0
-301 30 0
301 -98 -141 8 -86 -30 0
-302 51 0
-302 94 0
-302 -19 0
-302 189 0
-302 170 0
302 -51 -94 19 -189 -170 0
-303 99 0
-303 65 0
-303 158 0
-303 159 0
-303 147 0
303 -99 -65 -158 -159 -147 0
-304 77 0
-304 104 0
-304 -157 0
-304 14 0
-304 -23 0
304 -77 -104 157 -14 23 0
-305 33 0
-305 -85 0
-305 -146 0
-305 -51 0
-305 -47 0
305 -33 85 146 51 47 0
301 302 303 304 305 0
-306 -143 0
-306 88 0
-306 -35 0
-306 -95 0
-306 156 0
306 143 -88 35 95 -156 0
-307 186 0
-307 183 0
-307 146 0
-307 98 0
-307 71 0
307 -186 -183 -146 -98 -71 0
-308 178 0
-308 -51 0
-308 -72 0
-308 124 0
-308 21 0
308 -178 51 72 -124 -21 0
-309 -83 0
-309 -39 0
-309 28 0
-309 186 0
-309 -93 0
309 83 39 -28 -186 93 0
-310 137 0
-310 141 0
-310 -26 0
-310 161 0
-310 -75 0
310 -137 -141 26 -161 75 0
306 307 308 309 310 0
-311 35 0
-311 -182 0
-311 -168 0
-311 -127 0
-311 128 0
311 -35 182 168 127 -128 0
-312 149 0
-312 106 0
-312 -151 0
-312 83 0
-312 55 0
312 -149 -106 151 -83 -55 0
-313 -150 0
-313 69 0
-313 -9 0
-313 -165 0
-313 33 0
313 150 -69 9 165 -33 0
-314 -165 0
-314 124 0
-314 -9 0
-314 -62 0
-314 -144 0
314 165 -124 9 62 144 0
-315 3 0
-315 4 0
-315 -59 0
-315 6 0
-315 107 0
315 -3 -4 59 -6 -107 0
311 312 313 314 315 0
-316 87 0
-316 163 0
-316 175 0
-316 112 0
-316 -58 0
316 -87 -163 -175 -112 58 0
-317 -107 0
-317 -134 0
-317 -91 0
-317 -33 0
-317 -14 0
317 107 134 91 33 14 0
-318 -62 0
-318 89 0
-318 132 0
-318 -80 0
-318 69 0
318 62 -89 -132 80 -69 0
-319 122 0
-319 85 0
-319 107 0
-319 91 0
-319 61 0
319 -122 -85 -107 -91 -61 0
-320 39 0
-320 -59 0
-320 101 0
-320 -190 0
-320 184 0
320 -39 59 -101 190 -184 0
316 317 318 319 320 0
-321 62 0
-321 106 0
-321 -176 0
-321 13 0
-321 58 0
321 -62 -106 176 -13 -58 0
-322 -187 0
-322 61 0
-322 98 0
-322 -169 0
-322 39 0
322 187 -61 -98 169 -39 0
-323 154 0
-323 -170 0
-323 -67 0
-323 -45 0
-323 98 0
323 -154 170 67 45 -98 0
-324 -137 0
-324 34 0
-324 24 0
-324 -10 0
-324 -158 0
324 137 -34 -24 10 158 0
-325 25 0
-325 70 0
-325 80 0
-325 95 0
-325 66 0
325 -25 -70 -80 -95 -66 0
321 322 323 324 325 0
-326 138 0
-326 -2 0
-326 94 0
-326 52 0
-326 -171 0
326 -138 2 -94 -52 171 0
-327 -135 0
-327 -24 0
-327 -41 0
-327 -52 0
-327 149 0
327 135 24 41 52 -149 0
-328 139 0
-328 -171 0
-328 -14 0
-328 51 0
-328 -93 0
328 -139 171 14 -51 93 0
-329 -147 0
-329 -37 0
-329 25 0
-329 96 0
-329 118 0
329 147 37 -25 -96 -118 0
-330 97 0
-330 -151 0
-330 103 0
-330 175 0
-330 -7 0
330 -97 151 -103 -175 7 0
326 327 328 329 330 0
-331 132 0
-331 4 0
-331 114 0
-331 143 0
-331 170 0
331 -132 -4 -114 -143 -170 0
-332 -42 0
-332 -101 0
-332 173 0
-332 -157 0
-332 43 0
332 42 101 -173 157 -43 0
-333 156 0
-333 32 0
-333 135 0
-333 -141 0
-333 -16 0
333 -156 -32 -135 141 16 0
-334 106 0
-334 63 0
-334 14 0
-334 -64 0
-334 -114 0
334 -106 -63 -14 64 114 0
-335 53 0
-335 -23 0
-335 182 0
-335 140 0
-335 -21 0
335 -53 23 -182 -140 21 0
331 332 333 334 335 0
-336 119 0
-336 -152 0
-336 34 0
-336 128 0
-336 87 0
336 -119 152 -34 -128 -87 0
-337 -99 0
-337 -26 0
-337 -146 0
-337 -174 0
-337 126 0
337 99 26 146 174 -126 0
-338 103 0
-338 -174 0
-338 -110 0
-338 98 0
-338 -72 0
338 -103 174 110 -98 72 0
-339 145 0
-339 49 0
-339 22 0
-339 -56 0
-339 92 0
339 -145 -49 -22 56 -92 0
-340 -78 0
-340 -21 0
-340 -144 0
-340 -121 0
-340 -98 0
340 78 21 144 121 98 0
336 337 338 339 340 0
-341 -172 0
-341 150 0
-341 130 0
-341 -48 0
-341 52 0
341 172 -150 -130 48 -52 0
-342 3 0
-342 1 0
-342 122 0
-342 176 0
-342 39 0
342 -3 -1 -122 -176 -39 0
-343 3 0
-343 -66 0
-343 -6 0
-343 -54 0
-343 5 0
343 -3 66 6 54 -5 0
-344 -87 0
-344 -47 0
-344 -139 0
-344 92 0
-344 106 0
344 87 47 139 -92 -106 0
-345 98 0
-345 -16 0
-345 15 0
-345 -57 0
-345 -7 0
345 -98 16 -15 57 7 0
341 342 343 344 345 0
-346 -57 0
-346 -58 0
-346 -49 0
-346 -130 0
-346 107 0
346 57 58 49 130 -107 0
-347 40 0
-347 -172 0
-347 -78 0
-347 177 0
-347 57 0
347 -40 172 78 -177 -57 0
-348 -3 0
-348 -8 0
-348 -11 0
-348 132 0
-348 104 0
348 3 8 11 -132 -104 0
-349 -122 0
-349 154 0
-349 54 0
-349 -31 0
-349 -27 0
349 122 -154 -54 31 27 0
-350 183 0
-350 42 0
-350 164 0
-350 -127 0
-350 143 0
350 -183 -42 -164 127 -143 0
346 347 348 349 350 0
-351 -6 0
-351 15 0
-351 -130 0
-351 148 0
-351 -118 0
351 6 -15 130 -148 118 0
-352 -188 0
-352 -125 0
-352 62 0
-352 -94 0
-352 -98 0
352 188 125 -62 94 98 0
-353 -91 0
-353 -96 0
-353 -74 0
-353 -43 0
-353 -30 0
353 91 96 74 43 30 0
-354 -61 0
-354 127 0
-354 -64 0
-354 131 0
-354 93 0
354 61 -127 64 -131 -93 0
-355 88 0
-355 -22 0
-355 144 0
-355 -126 0
-355 131 0
355 -88 22 -144 126 -131 0
351 352 353 354 355 0
-356 -111 0
-356 -14 0
-356 139 0
-356 -105 0
-356 143 0
356 111 14 -139 105 -143 0
-357 170 0
-357 75 0
-357 -3 0
-357 -111 0
-357 -173 0
357 -170 -75 3 111 173 0
-358 -41 0
-358 137 0
-358 152 0
-358 -103 0
-358 148 0
358 41 -137 -152 103 -148 0
-359 134 0
-359 66 0
-359 162 0
-359 26 0
-359 -40 0
359 -134 -66 -162 -26 40 0
-360 125 0
-360 45 0
-360 -49 0
-360 -141 0
-360 105 0
360 -125 -45 49 141 -105 0
356 357 358 359 360 0
-361 -151 0
-361 4 0
-361 -68 0
-361 -45 0
-361 -158 0
361 151 -4 68 45 158 0
-362 -27 0
-362 90 0
-362 -177 0
-362 -96 0
-362 -81 0
362 27 -90 177 96 81 0
-363 -149 0
-363 -172 0
-363 -167 0
-363 37 0
-363 -87 0
363 149 172 167 -37 87 0
-364 -125 0
-364 116 0
-364 -157 0
-364 -112 0
-364 113 0
364 125 -116 157 112 -113 0
-365 -126 0
-365 18 0
-365 7 0
-365 -41 0
-365 14 0
365 126 -18 -7 41 -14 0
361 362 363 364 365 0
-366 -185 0
-366 141 0
-366 -116 0
-366 158 0
-366 -7 0
366 185 -141 116 -158 7 0
-367 121 0
-367 -21 0
-367 -176 0
-367 129 0
-367 -126 0
367 -121 21 176 -129 126 0
-368 -187 0
-368 22 0
-368 30 0
-368 -150 0
-368 114 0
368 187 -22 -30 150 -114 0
-369 -72 0
-369 -108 0
-369 113 0
-369 -99 0
-369 -135 0
369 72 108 -113 99 135 0
-370 -189 0
-370 -182 0
-370 -184 0
-370 -186 0
-370 -171 0
370 189 182 184 186 171 0
366 367 368 369 370 0
-371 14 0
-371 -41 0
-371 96 0
-371 -120 0
-371 -35 0
371 -14 41 -96 120 35 0
-372 -105 0
-372 31 0
-372 -6 0
-372 140 0
-372 -33 0
372 105 -31 6 -140 33 0
-373 -98 0
-373 -10 0
-373 -17 0
-373 -88 0
-373 94 0
373 98 10 17 88 -94 0
-374 -15 0
-374 -113 0
-374 96 0
-374 4 0
-374 139 0
374 15 113 -96 -4 -139 0
-375 71 0
-375 34 0
-375 -153 0
-375 45 0
-375 -122 0
375 -71 -34 153 -45 122 0
371 372 373 374 375 0
-376 -61 0
-376 45 0
-376 26 0
-376 -117 0
-376 -143 0
376 61 -45 -26 117 143 0
-377 -186 0
-377 -90 0
-377 84 0
-377 -71 0
-377 -119 0
377 186 90 -84 71 119 0
-378 136 0
-378 -173 0
-378 135 0
-378 -140 0
-378 19 0
378 -136 173 -135 140 -19 0
-379 86 0
-379 13 0
-379 57 0
-379 -134 0
-379 -8 0
379 -86 -13 -57 134 8 0
-380 -109 0
-380 104 0
-380 130 0
-380 155 0
-380 -84 0
380 109 -104 -130 -155 84 0
376 377 378 379 380 0
-381 127 0
-381 100 0
-381 70 0
-381 11 0
-381 115 0
381 -127 -100 -70 -11 -115 0
-382 -1 0
-382 -167 0
-382 93 0
-382 -160 0
-382 41 0
382 1 167 -93 160 -41 0
-383 143 0
-383 -130 0
-383 -66 0
-383 -113 0
-383 11 0
383 -143 130 66 113 -11 0
-384 -91 0
-384 -110 0
-384 61 0
-384 -157 0
-384 36 0
384 91 110 -61 157 -36 0
-385 156 0
-385 137 0
-385 11 0
-385 30 0
-385 -166 0
385 -156 -137 -11 -30 166 0
381 382 383 384 385 0
-386 104 0
-386 -129 0
-386 119 0
-386 63 0
-386 151 0
386 -104 129 -119 -63 -151 0
-387 40 0
-387 129 0
-387 92 0
-387 164 0
-387 -156 0
387 -40 -129 -92 -164 156 0
-388 51 0
-388 23 0
-388 36 0
-388 143 0
-388 -128 0
388 -51 -23 -36 -143 128 0
-389 -128 0
-389 120 0
-389 -172 0
-389 -8 0
-389 -156 0
389 128 -120 172 8 156 0
-390 130 0
-390 -27 0
-390 -72 0
-390 -79 0
-390 -174 0
390 -130 27 72 79 174 0
386 387 388 389 390 0
-391 161 0
-391 79 0
-391 -88 0
-391 -69 0
-391 70 0
391 -161 -79 88 69 -70 0
-392 -172 0
-392 -130 0
-392 153 0
-392 71 0
-392 99 0
392 172 130 -153 -71 -99 0
-393 61 0
-393 182 0
-393 17 0
-393 84 0
-393 52 0
393 -61 -182 -17 -84 -52 0
-394 29 0
-394 -7 0
-394 152 0
-394 -56 0
-394 -85 0
394 -29 7 -152 56 85 0
-395 -80 0
-395 170 0
-395 -124 0
-395 22 0
-395 35 0
395 80 -170 124 -22 -35 0
391 392 393 394 395 0
-396 34 0
-396 -24 0
-396 184 0
-396 -67 0
-396 -185 0
396 -34 24 -184 67 185 0
-397 76 0
-397 130 0
-397 -17 0
-397 176 0
-397 -157 0
397 -76 -130 17 -176 157 0
-398 104 0
-398 -168 0
-398 -9 0
-398 -105 0
-398 80 0
398 -104 168 9 105 -80 0
-399 179 0
-399 -147 0
-399 -139 0
-399 -151 0
-399 -138 0
399 -179 147 139 151 138 0
-400 -67 0
-400 29 0
-400 73 0
-400 68 0
-400 -130 0
400 67 -29 -73 -68 130 0
396 397 398 399 400 0
-401 -140 0
-401 -117 0
-401 -135 0
-401 -133 0
-401 -24 0
401 140 117 135 133 24 0
-402 161 0
-402 26 0
-402 -70 0
-402 10 0
-402 184 0
402 -161 -26 70 -10 -184 0
-403 -102 0
-403 72 0
-403 -146 0
-403 10 0
-403 -188 0
403 102 -72 146 -10 188 0
-404 156 0
-404 16 0
-404 11 0
-404 -148 0
-404 -150 0
404 -156 -16 -11 148 150 0
-405 119 0
-405 109 0
-405 -184 0
-405 118 0
-405 88 0
405 -119 -109 184 -118 -88 0
401 402 403 404 405 0
-406 150 0
-406 -137 0
-406 24 0
-406 120 0
-406 156 0
406 -150 137 -24 -120 -156 0
-407 -155 0
-407 -75 0
-407 -118 0
-407 5 0
-407 90 0
407 155 75 118 -5 -90 0
-408 5 0
-408 -89 0
-408 -91 0
-408 12 0
-408 66 0
408 -5 89 91 -12 -66 0
-409 -143 0
-409 78 0
-409 128 0
-409 79 0
-409 -120 0
409 143 -78 -128 -79 120 0
-410 -189 0
-410 -131 0
-410 -128 0
-410 43 0
-410 -140 0
410 189 131 128 -43 140 0
406 407 408 409 410 0
-411 -53 0
-411 165 0
-411 -3 0
-411 45 0
-411 84 0
411 53 -165 3 -45 -84 0
-412 118 0
-412 141 0
-412 190 0
-412 -101 0
-412 -133 0
412 -118 -141 -190 101 133 0
-413 183 0
-413 23 0
-413 -180 0
-413 -157 0
-413 21 0
413 -183 -23 180 157 -21 0
-414 14 0
-414 -57 0
-414 182 0
-414 180 0
-414 -11 0
414 -14 57 -182 -180 11 0
-415 -81 0
-415 127 0
-415 189 0
-415 -139 0
-415 44 0
415 81 -127 -189 139 -44 0
411 412 413 414 415 0
-416 -69 0
-416 -59 0
-416 -118 0
-416 45 0
-416 72 0
416 69 59 118 -45 -72 0
-417 187 0
-417 -31 0
-417 -46 0
-417 -171 0
-417 35 0
417 -187 31 46 171 -35 0
-418 135 0
-418 -103 0
-418 -63 0
-418 78 0
-418 -13 0
418 -135 103 63 -78 13 0
-419 -151 0
-419 186 0
-419 -14 0
-419 -190 0
-419 -167 0
419 151 -186 14 190 167 0
-420 -22 0
-420 -20 0
-420 -131 0
-420 64 0
-420 37 0
420 22 20 131 -64 -37 0
416 417 418 419 420 0
-421 71 0
-421 -190 0
-421 11 0
-421 -64 0
-421 -14 0
421 -71 190 -11 64 14 0
-422 -22 0
-422 -188 0
-422 146 0
-422 -17 0
-422 -180 0
422 22 188 -146 17 180 0
-423 48 0
-423 92 0
-423 -60 0
-423 164 0
-423 -23 0
423 -48 -92 60 -164 23 0
-424 121 0
-424 -137 0
-424 65 0
-424 146 0
-424 155 0
424 -121 137 -65 -146 -155 0
-425 175 0
-425 152 0
-425 68 0
-425 -23 0
-425 -71 0
425 -175 -152 -68 23 71 0
421 422 423 424 425 0
-426 -149 0
-426 74 0
-426 -145 0
-426 146 0
-426 129 0
426 149 -74 145 -146 -129 0
-427 132 0
-427 -29 0
-427 -116 0
-427 -129 0
-427 159 0
427 -132 29 116 129 -159 0
-428 -16 0
-428 39 0
-428 65 0
-428 -159 0
-428 -68 0
428 16 -39 -65 159 68 0
-429 -109 0
-429 -21 0
-429 -155 0
-429 42 0
-429 -29 0
429 109 21 155 -42 29 0
-430 -138 0
-430 97 0
-430 80 0
-430 -156 0
-430 87 0
430 138 -97 -80 156 -87 0
426 427 428 429 430 0
